(declare-fun bvlambda_12_ ()Bool         )
(declare-fun bvlambda_13_ () (_ BitVec 5))
(declare-fun bvlambda_22_ ()Bool         )
(declare-fun a69 () (Array (_ BitVec 1) (_ BitVec 5)))
(assert
(let (($e17 (_ bv0 4)))
(let (($e125 (store a69 false      bvlambda_13_)))
(let (($e269 (store a69 bvlambda_12_ bvlambda_13_)))
(let (($e270 (select $e269 true       )))
(let (($e365 (select $e125 bvlambda_22_)))
(let (($e692 (concat $e17 false       )))
(let (($e695      (= $e365 $e692)         ))
(let (($e709      (= $e270 bvlambda_13_)  ))
             (bvand (not   $e709)        $e695 )
                                                                                                                                                                                                                                                                                                                                                                                                                                                                                                                                                                              )             )  )                                                                                                                                                                                                                                                                                                                                      )                                                                                              ))                                                                                                                                               )                                                                                 )                )
